Route 1: 0 3 59 15 5 49 92 73 1 51 0
Route 2: 0 46 63 74 57 70 22 0
Route 3: 0 8 43 75 16 37 21 67 24 85 20 28 0
Route 4: 0 33 48 2 65 7 35 10 93 13 97 62 78 0
Route 5: 0 19 98 52 88 11 39 94 12 9 0
Route 6: 0 18 82 47 26 34 90 0
Route 7: 0 29 80 23 72 79 58 30 0
Route 8: 0 4 36 53 27 42 17 60 0
Route 9: 0 87 38 14 83 86 69 68 84 95 64 0
Route 10: 0 76 44 55 81 61 31 66 50 96 0
Route 11: 0 77 71 40 89 45 6 54 32 41 91 25 0
Route 12: 0 56 99 100 0
